JulietBench/Juliet_Based_Patch_Bench/linux/CWE-189-Numeric-Errors/CVE_2011_1593_d8bdc59f215e62098bc5b4256fd9928bf27053a1/Resultproc_pid_readdir_Snippet_patch2NEQ.smt2
; benchmark generated from python API
(set-info :status unknown)
(declare-fun R () (_ BitVec 32))
(declare-fun rdi () (_ BitVec 64))
(assert
 (let (($x32 (and (distinct (_ bv1 32) R) true)))
 (let ((?x6 ((_ extract 31 0) rdi)))
 (let ((?x16 (bvadd (_ bv4294967040 32) ?x6)))
 (let (($x18 (and (distinct R ?x16) true)))
 (let (($x31 (and $x18 $x32)))
 (let (($x24 (= (_ bv1 32) R)))
 (let (($x17 (= R ?x16)))
 (let (($x33 (and $x17 $x24)))
 (let (($x30 (or $x33 $x31)))
 (not $x30)))))))))))
(check-sat)
